WARNING: for repeatability, setting FPU to use double precision
============================[ Problem Statistics ]=============================
|                                                                             |
|  Number of variables:           100                                         |
|  Number of clauses:             449                                         |
|  Parse time:                   0.00 s                                       |
|  Eliminated clauses:           0.00 Mb                                      |
|  Simplification time:          0.00 s                                       |
|                                                                             |
============================[ Search Statistics ]==============================
| Conflicts |          ORIGINAL         |          LEARNT          | Progress |
|           |    Vars  Clauses Literals |    Limit  Clauses Lit/Cl |          |
===============================================================================
|       100 |      98      436     1314 |      159      100      7 |  0.010 % |
|       250 |      98      436     1314 |      175      164      6 |  0.020 % |
===============================================================================
restarts              : 3
conflicts             : 385            (95038 /sec)
decisions             : 487            (0.00 % random) (120217 /sec)
propagations          : 9007           (2223402 /sec)
conflict literals     : 2252           (25.82 % deleted)
Memory used           : 13.00 MB
CPU time              : 0.004051 s

SATISFIABLE
